NAME : lrc103.1258736.tour
COMMENT : Cost = 0_1258736
COMMENT : Found by LKH [Keld Helsgaun] Fri Sep 15 17:42:02 2017
TYPE : TOUR
DIMENSION : 117
TOUR_SECTION
1
62
43
44
45
41
39
42
73
72
94
95
81
110
3
46
2
4
6
9
7
56
69
106
109
91
100
98
76
59
78
111
93
63
51
68
85
107
57
67
117
34
28
31
33
29
103
27
30
32
35
114
21
19
49
22
24
23
50
20
26
25
58
102
115
82
40
37
36
38
55
104
97
112
99
61
74
79
80
8
47
5
101
71
113
70
89
54
13
11
14
17
18
48
105
108
83
15
16
12
10
88
60
75
87
53
116
66
84
65
52
77
90
64
86
96
92
-1
EOF
